17	4	3
15	17	16	16	24	22	47	
0	0	0	0	0	2	8	1	2	1	3	3	2	3	4
3	1	6	8	7	7	9	2	1	8	2	3	5	6	17
1	8	2	6	9	3	5	1	4	4	3	2	8	17
7	1	3	2	9	7	4	6	4	9	4	2	11	17
5	2	9	4	2	6	8	5	8	10	3	1	7
175	1	4	1	3	9	1	1	9	3	1	3	8	9	10
250	1	4	3	5	2	9	10	3	9	8	1	14
225	3	9	2	4	4	2	2	5	6	6	1	12
225	8	6	6	6	8	2	10	3	6	9	2	16	17
225	7	7	9	3	7	1	6	2	9	6	2	13	17
225	5	9	8	10	4	7	6	4	6	8	1	17
75	3	4	4	8	5	7	7	5	10	5	2	13	17
7	6	3	2	1	3	4	7	5	9	2	2	15	17
6	9	6	4	2	10	6	4	10	9	9	1	17
5	1	7	10	7	8	5	10	4	6	8	1	17
9	4	1	8	1	9	10	5	5	3	10	1	17
0	0	0	0	0	3	8	7	9	2	6	0
